DIMACS2
40 290 195 211 75 184 242 112 8 221 240 114 137 118 148 181 302 176 226 156 196 255 0 36 42 173 151 147 271 125 197 109 224 292 59 35 291 24 250 99 29
p edge 320 757
e 0 285 4.0
e 0 73 7.0
e 0 99 24.0
e 0 271 2.0
e 0 173 36.0
e 0 109 34.0
e 1 214 1.0
e 1 202 1.0
e 2 80 1.0
e 2 242 22.0
e 3 175 1.0
e 3 28 1.0
e 4 197 34.0
e 4 165 4.0
e 5 317 2.0
e 5 167 1.0
e 6 194 1.0
e 6 104 1.0
e 7 123 1.0
e 7 268 1.0
e 8 19 10.0
e 8 98 33.0
e 8 137 11.0
e 8 221 1.0
e 8 224 33.0
e 8 176 9.0
e 8 0 23.0
e 9 106 1.0
e 9 251 1.0
e 10 108 1.0
e 10 133 1.0
e 11 238 1.0
e 11 213 2.0
e 12 4 3.0
e 12 7 1.0
e 13 183 1.0
e 13 186 1.0
e 14 226 23.0
e 14 205 1.0
e 15 88 2.0
e 15 286 1.0
e 16 257 1.0
e 16 67 2.0
e 17 33 3.0
e 17 99 21.0
e 18 172 2.0
e 18 5 1.0
e 19 9 1.0
e 19 267 1.0
e 20 82 1.0
e 20 147 21.0
e 21 159 2.0
e 21 145 3.0
e 22 200 1.0
e 22 3 2.0
e 23 238 1.0
e 23 82 1.0
e 24 314 18.0
e 24 72 21.0
e 24 173 31.0
e 24 35 26.0
e 24 221 6.0
e 24 240 30.0
e 25 158 1.0
e 25 50 2.0
e 26 217 1.0
e 26 177 1.0
e 27 211 34.0
e 27 191 1.0
e 28 316 1.0
e 28 246 2.0
e 29 175 30.0
e 29 23 13.0
e 29 173 18.0
e 29 99 32.0
e 29 302 4.0
e 29 242 17.0
e 29 319 20.0
e 29 137 22.0
e 30 179 1.0
e 30 45 1.0
e 31 83 1.0
e 31 84 1.0
e 32 253 4.0
e 32 283 1.0
e 33 7 1.0
e 33 148 31.0
e 34 304 2.0
e 34 168 1.0
e 35 80 28.0
e 35 199 43.0
e 35 271 4.0
e 35 240 35.0
e 35 29 34.0
e 35 290 11.0
e 36 303 27.0
e 36 256 42.0
e 36 99 36.0
e 36 147 37.0
e 36 109 24.0
e 36 255 28.0
e 37 180 2.0
e 37 96 1.0
e 38 294 1.0
e 38 26 1.0
e 39 144 2.0
e 39 232 2.0
e 40 102 1.0
e 40 87 1.0
e 41 24 39.0
e 41 308 2.0
e 42 133 42.0
e 42 118 31.0
e 42 211 43.0
e 42 173 19.0
e 42 35 18.0
e 42 147 25.0
e 43 44 2.0
e 43 25 1.0
e 44 233 2.0
e 44 220 2.0
e 45 94 1.0
e 45 264 2.0
e 46 5 1.0
e 46 202 1.0
e 47 163 1.0
e 47 121 1.0
e 48 298 2.0
e 48 176 15.0
e 49 77 1.0
e 49 30 1.0
e 50 212 1.0
e 50 226 10.0
e 51 186 1.0
e 51 287 1.0
e 52 82 1.0
e 52 14 1.0
e 53 195 34.0
e 53 161 2.0
e 54 177 1.0
e 54 117 1.0
e 55 134 2.0
e 55 115 2.0
e 56 80 1.0
e 56 26 1.0
e 57 38 1.0
e 57 120 1.0
e 58 101 2.0
e 58 121 1.0
e 59 254 45.0
e 59 315 46.0
e 59 290 6.0
e 59 240 28.0
e 59 211 1.0
e 59 255 16.0
e 59 8 44.0
e 60 0 28.0
e 60 249 1.0
e 61 220 1.0
e 61 14 1.0
e 62 1 1.0
e 62 28 1.0
e 63 154 1.0
e 63 298 1.0
e 64 269 2.0
e 64 162 2.0
e 65 58 2.0
e 65 266 1.0
e 66 315 2.0
e 66 26 2.0
e 67 191 1.0
e 67 3 1.0
e 68 22 1.0
e 68 220 1.0
e 69 171 1.0
e 69 54 1.0
e 70 271 8.0
e 70 180 2.0
e 71 165 1.0
e 71 260 1.0
e 72 182 1.0
e 72 211 22.0
e 73 20 2.0
e 73 75 48.0
e 74 75 42.0
e 74 300 1.0
e 75 21 24.0
e 75 296 2.0
e 75 99 49.0
e 75 24 1.0
e 75 271 20.0
e 76 148 30.0
e 76 19 1.0
e 77 295 1.0
e 77 14 1.0
e 78 242 36.0
e 78 303 1.0
e 79 234 1.0
e 79 257 1.0
e 80 248 2.0
e 80 154 2.0
e 81 295 1.0
e 81 68 1.0
e 82 172 1.0
e 82 121 1.0
e 83 67 1.0
e 83 201 1.0
e 84 258 2.0
e 84 104 1.0
e 85 269 1.0
e 85 220 1.0
e 86 10 1.0
e 86 155 1.0
e 87 217 1.0
e 87 22 1.0
e 88 104 1.0
e 88 60 1.0
e 89 177 1.0
e 89 270 1.0
e 90 297 2.0
e 90 161 1.0
e 91 124 1.0
e 91 26 1.0
e 92 142 1.0
e 92 218 1.0
e 93 206 2.0
e 93 76 3.0
e 94 297 1.0
e 94 141 1.0
e 95 273 1.0
e 95 12 2.0
e 96 8 9.0
e 96 275 1.0
e 97 166 2.0
e 97 58 2.0
e 98 27 1.0
e 98 137 23.0
e 99 164 31.0
e 99 156 47.0
e 99 42 29.0
e 99 290 9.0
e 100 69 1.0
e 100 316 2.0
e 101 77 1.0
e 101 53 2.0
e 102 280 1.0
e 102 316 1.0
e 103 212 1.0
e 103 163 1.0
e 104 307 1.0
e 104 5 1.0
e 105 133 1.0
e 105 134 1.0
e 106 30 1.0
e 106 60 1.0
e 107 2 1.0
e 107 189 1.0
e 108 103 1.0
e 108 34 1.0
e 109 275 14.0
e 109 198 47.0
e 109 147 29.0
e 109 112 39.0
e 109 75 6.0
e 109 99 30.0
e 109 176 8.0
e 110 38 2.0
e 110 91 2.0
e 111 77 1.0
e 111 64 1.0
e 112 166 7.0
e 112 135 16.0
e 112 271 11.0
e 112 173 19.0
e 112 114 32.0
e 112 36 35.0
e 113 8 14.0
e 113 77 1.0
e 114 16 38.0
e 114 223 3.0
e 114 59 22.0
e 114 250 21.0
e 114 302 30.0
e 114 255 19.0
e 114 109 23.0
e 114 211 33.0
e 115 212 1.0
e 115 222 1.0
e 116 252 1.0
e 116 0 36.0
e 117 177 1.0
e 117 113 1.0
e 118 267 21.0
e 118 205 7.0
e 118 112 41.0
e 118 114 37.0
e 118 302 49.0
e 118 147 35.0
e 118 125 36.0
e 119 284 1.0
e 119 32 1.0
e 120 14 1.0
e 120 293 1.0
e 121 115 2.0
e 121 209 1.0
e 122 20 1.0
e 122 252 1.0
e 123 166 2.0
e 123 42 45.0
e 124 195 5.0
e 124 63 1.0
e 125 212 44.0
e 125 39 29.0
e 125 271 41.0
e 125 137 29.0
e 125 290 37.0
e 126 2 1.0
e 126 315 5.0
e 127 158 1.0
e 127 72 1.0
e 128 250 45.0
e 128 1 1.0
e 129 125 41.0
e 129 296 2.0
e 130 293 1.0
e 130 190 1.0
e 131 282 1.0
e 131 84 1.0
e 132 142 1.0
e 132 233 1.0
e 133 87 1.0
e 133 184 49.0
e 134 51 1.0
e 134 312 1.0
e 135 108 3.0
e 135 166 5.0
e 136 218 1.0
e 136 125 5.0
e 137 260 8.0
e 137 70 2.0
e 138 222 2.0
e 138 252 1.0
e 139 159 1.0
e 139 154 1.0
e 140 4 1.0
e 140 22 1.0
e 141 39 2.0
e 141 5 1.0
e 142 101 1.0
e 142 28 1.0
e 143 224 13.0
e 143 299 1.0
e 144 12 1.0
e 144 180 1.0
e 145 151 7.0
e 145 95 1.0
e 146 172 1.0
e 146 270 1.0
e 147 182 14.0
e 147 80 46.0
e 147 137 9.0
e 148 80 22.0
e 148 301 47.0
e 148 118 34.0
e 148 125 27.0
e 149 122 1.0
e 149 89 1.0
e 150 84 1.0
e 150 289 1.0
e 151 238 5.0
e 151 44 37.0
e 151 302 34.0
e 151 271 28.0
e 151 173 30.0
e 151 255 28.0
e 152 25 1.0
e 152 299 1.0
e 153 120 2.0
e 153 233 1.0
e 154 48 1.0
e 154 294 1.0
e 155 212 1.0
e 155 120 2.0
e 156 65 45.0
e 156 128 26.0
e 156 147 20.0
e 156 148 19.0
e 157 223 1.0
e 157 97 1.0
e 158 150 1.0
e 158 274 1.0
e 159 269 1.0
e 159 37 1.0
e 160 169 1.0
e 160 36 46.0
e 161 275 2.0
e 161 5 1.0
e 162 16 1.0
e 162 58 2.0
e 163 243 1.0
e 163 65 2.0
e 164 62 1.0
e 164 209 2.0
e 165 279 1.0
e 165 193 1.0
e 166 5 1.0
e 166 70 1.0
e 167 273 1.0
e 167 104 1.0
e 168 186 1.0
e 168 297 1.0
e 169 17 1.0
e 169 244 1.0
e 170 44 1.0
e 170 147 40.0
e 171 20 2.0
e 171 61 2.0
e 172 218 1.0
e 172 214 1.0
e 173 260 13.0
e 173 90 18.0
e 174 265 1.0
e 174 180 1.0
e 175 284 1.0
e 175 150 1.0
e 176 282 38.0
e 176 206 23.0
e 176 151 45.0
e 176 156 33.0
e 177 19 2.0
e 177 170 1.0
e 178 171 2.0
e 178 242 9.0
e 179 278 2.0
e 179 256 1.0
e 180 141 1.0
e 180 59 31.0
e 181 291 4.0
e 181 70 2.0
e 181 290 47.0
e 181 173 40.0
e 181 221 45.0
e 181 156 40.0
e 181 302 42.0
e 181 176 47.0
e 181 184 11.0
e 182 16 2.0
e 182 121 1.0
e 183 148 46.0
e 183 316 1.0
e 184 115 9.0
e 184 227 30.0
e 184 195 23.0
e 184 156 44.0
e 184 196 46.0
e 184 197 48.0
e 185 42 33.0
e 185 270 2.0
e 186 275 1.0
e 186 243 3.0
e 187 248 2.0
e 187 19 1.0
e 188 3 2.0
e 188 241 2.0
e 189 113 3.0
e 189 229 1.0
e 190 185 1.0
e 190 313 1.0
e 191 157 1.0
e 191 310 1.0
e 192 65 2.0
e 192 150 1.0
e 193 283 1.0
e 193 27 1.0
e 194 27 2.0
e 194 62 2.0
e 195 131 19.0
e 195 303 6.0
e 195 156 49.0
e 195 196 2.0
e 196 130 36.0
e 196 116 48.0
e 196 302 6.0
e 196 156 42.0
e 196 197 40.0
e 196 181 18.0
e 196 221 36.0
e 197 154 20.0
e 197 312 34.0
e 197 195 33.0
e 197 302 39.0
e 198 90 3.0
e 198 103 1.0
e 199 70 1.0
e 199 106 1.0
e 200 102 1.0
e 200 24 5.0
e 201 150 1.0
e 201 77 1.0
e 202 88 1.0
e 202 27 1.0
e 203 197 21.0
e 203 317 1.0
e 204 243 2.0
e 204 21 3.0
e 205 146 2.0
e 205 18 1.0
e 206 121 1.0
e 207 44 1.0
e 207 259 2.0
e 208 140 3.0
e 208 305 1.0
e 209 228 1.0
e 209 159 1.0
e 210 197 36.0
e 210 164 1.0
e 211 236 19.0
e 211 102 12.0
e 212 34 1.0
e 212 148 19.0
e 213 106 1.0
e 213 282 3.0
e 214 24 10.0
e 214 42 13.0
e 215 177 1.0
e 215 303 1.0
e 216 77 1.0
e 216 48 2.0
e 217 43 1.0
e 217 263 1.0
e 218 276 1.0
e 218 53 2.0
e 219 203 2.0
e 219 316 1.0
e 220 266 1.0
e 220 88 2.0
e 221 300 20.0
e 221 123 16.0
e 221 240 29.0
e 221 242 30.0
e 221 290 17.0
e 222 243 2.0
e 222 176 11.0
e 223 107 1.0
e 223 273 1.0
e 224 102 33.0
e 224 52 19.0
e 224 184 41.0
e 224 196 44.0
e 224 302 32.0
e 224 255 28.0
e 224 221 13.0
e 225 287 1.0
e 225 213 1.0
e 226 13 5.0
e 226 293 47.0
e 226 290 18.0
e 226 197 40.0
e 226 224 27.0
e 226 291 44.0
e 226 240 43.0
e 227 90 1.0
e 227 140 1.0
e 228 158 1.0
e 228 0 5.0
e 229 266 1.0
e 229 151 22.0
e 230 101 1.0
e 230 137 28.0
e 231 16 1.0
e 231 18 2.0
e 232 53 1.0
e 232 184 23.0
e 233 27 1.0
e 233 128 1.0
e 234 227 2.0
e 234 31 1.0
e 235 4 3.0
e 235 58 1.0
e 236 36 13.0
e 236 39 1.0
e 237 117 1.0
e 237 276 2.0
e 238 235 1.0
e 238 68 1.0
e 239 23 1.0
e 239 143 2.0
e 240 267 6.0
e 240 63 30.0
e 240 290 33.0
e 241 202 1.0
e 241 35 12.0
e 242 249 5.0
e 242 246 37.0
e 242 226 4.0
e 242 240 49.0
e 243 252 1.0
e 243 59 49.0
e 244 201 1.0
e 244 217 1.0
e 245 124 1.0
e 245 276 1.0
e 246 117 1.0
e 246 194 2.0
e 247 169 1.0
e 247 259 1.0
e 248 203 1.0
e 248 148 40.0
e 249 213 1.0
e 249 283 1.0
e 250 223 3.0
e 250 160 42.0
e 250 291 9.0
e 250 242 6.0
e 250 255 43.0
e 250 292 44.0
e 251 143 2.0
e 251 279 1.0
e 252 253 4.0
e 252 142 1.0
e 253 195 22.0
e 253 219 2.0
e 254 168 1.0
e 254 185 1.0
e 255 318 21.0
e 255 313 45.0
e 255 291 2.0
e 256 213 3.0
e 256 127 1.0
e 257 281 2.0
e 257 229 1.0
e 258 38 2.0
e 258 239 2.0
e 259 5 2.0
e 259 211 4.0
e 260 75 8.0
e 260 249 2.0
e 261 209 1.0
e 261 289 1.0
e 262 193 1.0
e 262 12 1.0
e 263 136 1.0
e 263 19 1.0
e 264 132 1.0
e 264 230 1.0
e 265 35 15.0
e 265 292 36.0
e 266 145 1.0
e 266 283 1.0
e 267 206 1.0
e 267 56 1.0
e 268 312 1.0
e 268 278 1.0
e 269 195 42.0
e 269 23 2.0
e 270 274 2.0
e 270 298 1.0
e 271 23 6.0
e 271 301 30.0
e 272 112 19.0
e 272 150 1.0
e 273 79 1.0
e 273 258 1.0
e 274 164 2.0
e 274 75 16.0
e 275 26 1.0
e 275 166 2.0
e 276 265 2.0
e 276 271 39.0
e 277 56 1.0
e 277 214 1.0
e 278 25 1.0
e 278 194 1.0
e 279 185 1.0
e 279 4 6.0
e 280 295 1.0
e 280 316 1.0
e 281 176 42.0
e 281 107 2.0
e 282 60 2.0
e 282 141 2.0
e 283 211 7.0
e 283 106 1.0
e 284 257 1.0
e 284 135 1.0
e 285 211 5.0
e 285 165 1.0
e 286 36 13.0
e 286 216 1.0
e 287 106 1.0
e 287 9 1.0
e 288 240 47.0
e 288 38 1.0
e 289 294 1.0
e 289 31 1.0
e 290 38 17.0
e 290 175 38.0
e 291 312 35.0
e 291 313 24.0
e 291 292 13.0
e 292 286 11.0
e 292 236 27.0
e 292 255 23.0
e 293 68 1.0
e 293 230 1.0
e 294 146 2.0
e 294 308 1.0
e 295 312 1.0
e 295 223 1.0
e 296 269 1.0
e 296 299 1.0
e 297 227 1.0
e 297 163 1.0
e 298 310 1.0
e 298 187 1.0
e 299 112 1.0
e 299 219 1.0
e 300 251 1.0
e 300 127 1.0
e 301 77 1.0
e 301 229 1.0
e 302 125 17.0
e 302 136 35.0
e 303 237 1.0
e 303 29 3.0
e 304 293 3.0
e 304 217 2.0
e 305 173 19.0
e 305 186 1.0
e 306 190 3.0
e 306 137 4.0
e 307 126 1.0
e 307 306 2.0
e 308 92 1.0
e 308 118 10.0
e 309 105 1.0
e 309 116 1.0
e 310 31 1.0
e 310 5 1.0
e 311 91 2.0
e 311 246 2.0
e 312 123 1.0
e 312 40 1.0
e 313 25 1.0
e 313 64 1.0
e 314 293 2.0
e 314 231 2.0
e 315 9 3.0
e 315 100 4.0
e 316 119 1.0
e 316 159 1.0
e 317 137 31.0
e 317 246 2.0
e 318 108 5.0
e 318 177 2.0
e 319 161 2.0
e 319 151 11.0
